
###############################################
# Initialisation
###############################################
units           cgs # This means cm, g, s for base units.
boundary        f f f
atom_style      hybrid molecular sphere
#atom-ID atom-type diameter density x y z
dimension       3
newton          on
# atom_modify     map array
###############################################
# Geometry-related parameters
###############################################

variable pos_box equal 2
variable owning_cutoff equal ${pos_box}
variable neg_box equal -${pos_box}

region boundingBox block ${neg_box} ${pos_box} ${neg_box} ${pos_box} ${neg_box} ${pos_box} units box
create_box 3 boundingBox angle/types 1 extra/angle/per/atom 10


variable pos_spawner equal (${pos_box}-1)*cos(PI/4)
variable neg_spawner equal -${pos_spawner}


region          spawner block ${neg_spawner} ${pos_spawner} ${neg_spawner} ${pos_spawner} ${neg_spawner} ${pos_spawner} units box

region          walls sphere 0 0 0 ${pos_box} units box

fix		walls all wall/gran/region hertz/history &
		49777777 64000000 5000 3000 0.35 1    region walls contacts

###############################################
# Particle-related parameters
###############################################

angle_style	zero
angle_style	zero
angle_coeff	* 75.0

molecule sphere sphere.mol

# # Pre-fix settings ~~~~~~~~~~~~~~~~~~~~~~~~~~~~~~~~~~~~~~~~~~~~~~~~~~~
neighbor	1.0 multi
comm_modify	mode multi vel yes
neigh_modify page 100000
neigh_modify one 10000
neigh_modify	check yes

​compute t1 all temp/sphere
thermo_modify temp t1


pair_style gran/hertz/history 49777777 64000000 5000 3000 0.35 1
pair_coeff * *
timestep     5.0e-6

lattice fcc 1

create_atoms 1 region spawner mol sphere 1729871 rotate 132.24987429181016 0 1 1

neigh_modify exclude molecule/intra all

group none type 0
group particles type 2
velocity particles set 0 0 -100

group owning id 1:1018413:297
group owned subtract all owning
set group owning type 3
neigh_modify collection/type 2 *2, 3
comm_modify cutoff/multi 1 0.0 cutoff/multi 2 ${owning_cutoff}

fix abrade all rigid/abrade 1.e7 0.25 50 molecule gravity 4
fix 4 none gravity 100 vector 0 0 -1


# Run Simulation
variable t_total equal 50000
variable t_print equal ${t_total}/100
variable t_dump equal ${t_print}/2
variable progress equal round(ramp(0,100))

dump 1 all custom ${t_dump} dump.output id x y z radius 

fix extra all print ${t_print} "Running: ${progress}%"
run ${t_total}

