# 11/09/2024
# Simulation to impact a variety of non-abradable surfaces (planes of a cube) at 20 random points. 
# The hardness is set as e50 to emulate an infinitely hard surface, and a variety of impact velocities are tested (taken from the original Wear Model paper)
# The aim is to invecstigate the short comings of the hertz/history contact model when applied to Multi-spherical Clumps.


###############################################
# Variable Definitions
###############################################

# Contact Model Variables
variable E equal 200 # GPa
variable poisson equal 0.3 # -
variable G equal ${E}/(2*(1+${poisson}))
variable kn equal (4*${G}/(3*((1-${poisson}))))*(1e+10)
variable kt equal (4*${G}/(2-${poisson}))*(1e+10)

variable gamma_n equal 0.0 # 1/cm.s
variable gamma_t equal 0.0 # 1/cm.s
variable xmu equal 0.0 # -

variable damp_flag equal 0

# Abrasion Material Variables
variable H equal 5.0e9 # dyne/cm^2
variable H_print equal (${H}/10000000000) # GPa
variable mu equal 0.25 # -

# Timestep
variable dt equal 5.0e-8 # s

###############################################
# Initialisation
###############################################
units           cgs # This means cm, g, s for base units.
boundary        p p p 
atom_style      hybrid molecular sphere
dimension       3
newton          on
# atom_modify     map array

###############################################
# Geometry-related parameters
###############################################
processors * * *

region boundingBox block -5.0 5.0 -5.0 5.0 -5.0 5.0 units box side in
region wallBox block -0.5 0.5 -4.8 4.8 -4.8 4.8 units box side out
create_box 3 boundingBox angle/types 1 extra/angle/per/atom 10

###############################################
# Particle-related parameters
###############################################
angle_style	zero
angle_style	zero
angle_coeff	* 75.0

# molecule sphere sphere_remesh.mol
variable natoms_per_body equal 27

# molecule sphere sphere_remesh_no_centre.mol

# molecule sphere particle_remesh_high_res.mol
# variable natoms_per_body equal 1179

molecule sphere sphere_remesh_high_res.mol
variable natoms_per_body equal 153

###############################################
# Pre-fix Settings
###############################################
neighbor 1.0 multi   # *******************************************
comm_modify mode multi vel yes # *******************************************
neigh_modify page 100000 # *******************************************
neigh_modify one 10000 # *******************************************
# comm_modify	mode single cutoff 12.0 vel yes
​compute t1 all temp/sphere
thermo_modify temp t1
# thermo_style custom step cpu
# neigh_modify one 10000

pair_style gran/hertz/history ${kn} ${kt} ${gamma_n} ${gamma_t} ${xmu} ${damp_flag}
pair_coeff * *

timestep ${dt}

###############################################
# Particle Creation
###############################################

create_atoms 1 single 3.0 -3.0 0.0 mol sphere 1729871 rotate 0.0 0.0 0.0 1.0 

create_atoms 1 single -3.0 -3.0 0.0 mol sphere 1729871 rotate 0.0 0.0 0.0 1.0 

create_atoms 1 single 3.0 3.0 0.0 mol sphere 1729871 rotate 0.0 0.0 0.0 1.0 

create_atoms 1 single -3.0 3.0 0.0 mol sphere 1729871 rotate 0.0 0.0 0.0 1.0 

group none type 0
group particles type 2
set group particles diameter 1.0

#  A = starting index : B = ending index : C = increment between indices
group owning id 1:1018413:${natoms_per_body} # *******************************************
group owned subtract all owning # *******************************************
set group owning type 3 # *******************************************
neigh_modify collection/type 2 *2, 3 # *******************************************
comm_modify cutoff/multi 1 0.0 cutoff/multi 2 3.0 # *******************************************

neigh_modify exclude molecule/intra all
 
group a molecule 1
velocity a set 20000 0 0

group b molecule 2
velocity b set -20000 0 0

group c molecule 3
velocity c set -20000 0 0

group d molecule 4
velocity d set 20000 0 0

###############################################
# Fix Definitions
###############################################

fix		walls all wall/gran/region hertz/history &
		${kn} ${kt} 5000 3000 0.45 1    region wallBox contacts 


fix abrade all rigid/abrade ${H} 0.25 8.0 molecule remesh equalise


###############################################
# Running Simulation
###############################################

# run 3

# dump 1 all custom 1 dump.test id x y z radius f_abrade[4]

dump 2 all custom 10 dump.test id x y z radius fx fy fz f_abrade[4] f_abrade[8]
# dump_modify 2 append yes

# Run simulation 
variable t_total equal 6000
variable t_print equal ${t_total}/100
variable progress equal round(ramp(0,100))
fix extra all print ${t_print} "Running: ${progress}%"
run ${t_total}



